Running for instance ./models/r103.txt
Generating routes...
Execution time:  0.33527655  minutes
Academic license - for non-commercial use only
Warning: constraint name "Cliente esta na rota" has a space
Optimize a model with 26 rows, 5000 columns and 30549 nonzeros
Variable types: 0 continuous, 5000 integer (0 binary)
Coefficient statistics:
  Matrix range     [1e+00, 1e+00]
  Objective range  [5e+01, 2e+02]
  Bounds range     [1e+00, 1e+00]
  RHS range        [1e+00, 2e+01]
Found heuristic solution: objective 1195.6197473
Presolve removed 0 rows and 2432 columns
Presolve time: 0.02s
Presolved: 26 rows, 2568 columns, 15745 nonzeros
Found heuristic solution: objective 933.4600760
Variable types: 0 continuous, 2568 integer (2568 binary)

Root relaxation: objective 5.358329e+02, 80 iterations, 0.00 seconds

    Nodes    |    Current Node    |     Objective Bounds      |     Work
 Expl Unexpl |  Obj  Depth IntInf | Incumbent    BestBd   Gap | It/Node Time

*    0     0               0     535.8328814  535.83288  0.00%     -    0s

Explored 0 nodes (80 simplex iterations) in 0.03 seconds
Thread count was 8 (of 8 available processors)

Solution count 3: 535.833 933.46 1026.49 

Optimal solution found (tolerance 1.00e-04)
Best objective 5.358328813538e+02, best bound 5.358328813538e+02, gap 0.0000%
9 3
12 21 23
6 2
14 15 22
8 5 17
18 7 19 11 10 20
Distance: 535.832881354
Execution time:  0.34134745  minutes
